0 58 52 42 24 34 54 50 53 83
58 0 73 71 33 59 49 74 14 61
52 73 0 13 40 96 51 24 79 11
42 71 13 0 51 52 31 88 89 37
24 33 40 51 0 51 42 34 76 38
34 59 96 52 51 0 65 21 37 19
54 49 51 31 42 65 0 77 53 85
50 74 24 88 34 21 77 0 82 86
53 14 79 89 76 37 53 82 0 16
83 61 11 37 38 19 85 86 16 0
